#######################



#######################
Set parameter TimeLimit to value 300
Set parameter SoftMemLimit to value 125
Set parameter LogFile to value 1003-MIPFocus0-Presolve2-TimeLimit300-k16x240-2.log
Set parameter Presolve to value 2
Set parameter Seed to value 2
Using license file /opt/gurobi/gurobi.lic

Gurobi Optimizer version 10.0.3 build v10.0.3rc0 (linux64)
Copyright (c) 2023, Gurobi Optimization, LLC

Read MPS format model from file /miplib2010/k16x240.mps.bz2
Reading time = 0.00 seconds
k16x240: 256 rows, 480 columns, 960 nonzeros

CPU model: Intel(R) Xeon(R) E-2388G CPU @ 3.20GHz, instruction set [SSE2|AVX|AVX2|AVX512]
Thread count: 8 physical cores, 16 logical processors, using up to 16 threads

Optimize a model with 256 rows, 480 columns and 960 nonzeros
Model fingerprint: 0x4e80885f
Variable types: 240 continuous, 240 integer (240 binary)
Coefficient statistics:
  Matrix range     [1e+00, 1e+03]
  Objective range  [1e+00, 1e+03]
  Bounds range     [1e+00, 1e+03]
  RHS range        [4e+00, 4e+02]
Found heuristic solution: objective 20929.000000
Presolve time: 0.00s
Presolved: 256 rows, 480 columns, 960 nonzeros
Variable types: 240 continuous, 240 integer (240 binary)
Root relaxation presolve removed 241 rows and 240 columns
Root relaxation presolved: 15 rows, 240 columns, 450 nonzeros


Root relaxation: objective 2.769838e+03, 16 iterations, 0.00 seconds (0.00 work units)

    Nodes    |    Current Node    |     Objective Bounds      |     Work
 Expl Unexpl |  Obj  Depth IntInf | Incumbent    BestBd   Gap | It/Node Time

     0     0 2769.83800    0   14 20929.0000 2769.83800  86.8%     -    0s
H    0     0                    11359.000000 2769.83800  75.6%     -    0s
H    0     0                    11157.000000 2769.83800  75.2%     -    0s
H    0     0                    11061.000000 8084.69631  26.9%     -    0s
     0     0 8084.69631    0   26 11061.0000 8084.69631  26.9%     -    0s
H    0     0                    10895.000000 8084.69631  25.8%     -    0s
     0     0 8528.16906    0   24 10895.0000 8528.16906  21.7%     -    0s
     0     0 8539.18062    0   32 10895.0000 8539.18062  21.6%     -    0s
     0     0 8548.03675    0   29 10895.0000 8548.03675  21.5%     -    0s
     0     0 8706.03136    0   35 10895.0000 8706.03136  20.1%     -    0s
H    0     0                    10765.000000 8706.03136  19.1%     -    0s
     0     0 8756.63558    0   30 10765.0000 8756.63558  18.7%     -    0s
     0     0 8759.07726    0   27 10765.0000 8759.07726  18.6%     -    0s
     0     0 8840.77153    0   29 10765.0000 8840.77153  17.9%     -    0s
H    0     0                    10711.000000 8860.34661  17.3%     -    0s
     0     0 8860.34661    0   36 10711.0000 8860.34661  17.3%     -    0s
     0     0 8862.56528    0   36 10711.0000 8862.56528  17.3%     -    0s
     0     0 9005.14196    0   37 10711.0000 9005.14196  15.9%     -    0s
     0     0 9028.16648    0   31 10711.0000 9028.16648  15.7%     -    0s
     0     0 9034.16097    0   37 10711.0000 9034.16097  15.7%     -    0s
     0     0 9070.19291    0   40 10711.0000 9070.19291  15.3%     -    0s
     0     0 9070.19291    0   40 10711.0000 9070.19291  15.3%     -    0s
H    0     2                    10683.000000 9070.19291  15.1%     -    0s
     0     2 9070.19291    0   40 10683.0000 9070.19291  15.1%     -    0s
H   34    40                    10678.000000 9259.98254  13.3%  51.1    0s
H  118   138                    10674.000000 9259.98254  13.2%  31.7    0s
 30260 11342 10426.8992   29   17 10674.0000 9997.86060  6.33%  25.6    5s
 62360 17809 10388.6146   36   11 10674.0000 10156.8794  4.84%  26.5   10s
 95671 20070     cutoff   39      10674.0000 10270.4524  3.78%  27.4   15s
 127855 17246 10461.7490   31   23 10674.0000 10372.9319  2.82%  27.8   20s
 160607  7712 10532.1137   39   11 10674.0000 10497.9607  1.65%  27.6   25s

Cutting planes:
  Lift-and-project: 22
  Cover: 82
  Implied bound: 22
  MIR: 210
  Flow cover: 316
  Flow path: 62
  Inf proof: 3
  Zero half: 13
  Network: 62
  Relax-and-lift: 4

Explored 173505 nodes (4669251 simplex iterations) in 27.03 seconds (42.74 work units)
Thread count was 16 (of 16 available processors)

Solution count 10: 10674 10678 10683 ... 20929

Optimal solution found (tolerance 1.00e-04)
Best objective 1.067400000000e+04, best bound 1.067400000000e+04, gap 0.0000%
